results_rootrelaxation/bin018_050_018.srr.sol
solution status: optimal solution found
objective value:                                    0
_var354_                            0.182551183053594 	(obj:0)
_var921_                            0.129383467941084 	(obj:0)
_var1161_                           0.129801596761044 	(obj:0)
_var1454_                          0.0566768600925558 	(obj:0)
_var1859_                           0.288170646809803 	(obj:0)
_var2299_                          0.0594221749055021 	(obj:0)
_var2497_                         0.00600035282689539 	(obj:0)
_var2583_                            0.26098982682329 	(obj:0)
_var2635_                          0.0350591279098712 	(obj:0)
_var2742_                           0.314919698696984 	(obj:0)
_var2755_                           0.134709287161058 	(obj:0)
_var2756_                          0.0689321251253712 	(obj:0)
_var2757_                           0.138397167091132 	(obj:0)
_var2758_                          0.0470290733871193 	(obj:0)
_var2759_                          0.0291720223009487 	(obj:0)
_var2762_                         0.00735622649265019 	(obj:0)
_var2765_                           0.196919042825558 	(obj:0)
_var2766_                           0.100257997348541 	(obj:0)
_var2767_                          0.0100953496004171 	(obj:0)
_var2769_                           0.388395661109018 	(obj:0)
_var2773_                           0.255213806370031 	(obj:0)
_var2777_                          0.0330090975107693 	(obj:0)
_var2778_                           0.180293185276005 	(obj:0)
_var2779_                            0.21615568367305 	(obj:0)
_var2780_                           0.109023287380357 	(obj:0)
_var2784_                         0.00540613302108045 	(obj:0)
_var2792_                           0.181048345159818 	(obj:0)
_var2793_                           0.122660684078852 	(obj:0)
_var2797_                           0.322627983765104 	(obj:0)
_var2801_                            0.26277565327778 	(obj:0)
_var2803_                            0.11292035038748 	(obj:0)
_var2805_                           0.104289645585865 	(obj:0)
_var2807_                          0.0770546683843056 	(obj:0)
_var2813_                           0.215673630165377 	(obj:0)
_var2817_                           0.168278760259808 	(obj:0)
_var2818_                           0.195249424880727 	(obj:0)
_var2819_                          0.0225460836313956 	(obj:0)
_var2820_                           0.153686804678553 	(obj:0)
_var2825_                           0.089722261010992 	(obj:0)
_var2834_                          0.0452871141507328 	(obj:0)
_var2837_                          0.0238121712557451 	(obj:0)
_var2840_                           0.411419781327786 	(obj:0)
_var2851_                          0.0705619322190652 	(obj:0)
_var2852_                           0.243430964098349 	(obj:0)
_var2856_                           0.115902515480713 	(obj:0)
_var2859_                          0.0910302647660337 	(obj:0)
_var2860_                           0.191144661343853 	(obj:0)
_var2861_                          0.0362824049093239 	(obj:0)
_var2864_                          0.0162588990864054 	(obj:0)
_var2868_                           0.169574211008026 	(obj:0)
_var2870_                           0.157133269571123 	(obj:0)
_var2871_                          0.0426667635205372 	(obj:0)
_var2873_                            0.13714912513641 	(obj:0)
_var2879_                           0.220423049865634 	(obj:0)
_var2881_                           0.125092338643489 	(obj:0)
_var2883_                          0.0116540433973617 	(obj:0)
_var2887_                           0.103430786307592 	(obj:0)
_var2888_                          0.0541178536952034 	(obj:0)
_var2893_                          0.0170744457932502 	(obj:0)
_var2894_                           0.192112625880305 	(obj:0)
_var2895_                            0.27319511087843 	(obj:0)
_var2897_                           0.332770076677624 	(obj:0)
_var2898_                           0.079123766594889 	(obj:0)
_var2900_                           0.162329189103797 	(obj:0)
_var2902_                          0.0351044142590632 	(obj:0)
_var2904_                            0.14590187680714 	(obj:0)
_var2907_                          0.0855887805219331 	(obj:0)
_var2909_                          0.0608064434454114 	(obj:0)
_var2910_                          0.0103397775924427 	(obj:0)
_var2911_                           0.114443352372732 	(obj:0)
_var2913_                           0.119506984055182 	(obj:0)
_var2915_                           0.117849734915542 	(obj:0)
_var2916_                           0.160095487967314 	(obj:0)
_var2917_                           0.169133452810718 	(obj:0)
_var2918_                          0.0607946562662731 	(obj:0)
_var2920_                          0.0698159655340802 	(obj:0)
_var2923_                            0.15034380658918 	(obj:0)
_var2924_                         0.00419592719315779 	(obj:0)
_var2926_                           0.196919606213166 	(obj:0)
_var2930_                          0.0330285419434584 	(obj:0)
_var2931_                         0.00190647455188919 	(obj:0)
_var2932_                          0.0283819617257067 	(obj:0)
_var2934_                          0.0889347231482403 	(obj:0)
_var2935_                           0.264200201673676 	(obj:0)
_var2939_                          0.0727031559404056 	(obj:0)
_var2942_                          0.0943844244028521 	(obj:0)
_var2943_                          0.0111099092517352 	(obj:0)
_var2944_                            0.12228952116137 	(obj:0)
_var2945_                           0.136059483192211 	(obj:0)
_var2948_                           0.213515737216726 	(obj:0)
_var2949_                          0.0713459515465301 	(obj:0)
_var2951_                           0.179749804476013 	(obj:0)
_var2952_                            0.16729840207782 	(obj:0)
_var2953_                            0.17989494895598 	(obj:0)
_var2954_                          0.0140880523620011 	(obj:0)
_var2955_                           0.178922717908624 	(obj:0)
_var2956_                            0.09476853741313 	(obj:0)
_var2959_                          0.0956410750458976 	(obj:0)
_var2961_                           0.178912807692057 	(obj:0)
_var2962_                         0.00567777876254118 	(obj:0)
_var2964_                           0.145654691538349 	(obj:0)
_var2965_                          0.0792988229206961 	(obj:0)
_var2967_                           0.192725929272508 	(obj:0)
_var2969_                          0.0448115580676266 	(obj:0)
_var2970_                           0.206229575754199 	(obj:0)
_var2971_                          0.0340628965153106 	(obj:0)
_var2973_                          0.0509283491730317 	(obj:0)
_var2974_                          0.0542628501629023 	(obj:0)
_var2975_                           0.268157545904083 	(obj:0)
_var2976_                           0.119334431943096 	(obj:0)
_var2977_                          0.0697897886440397 	(obj:0)
_var2978_                           0.103882943489754 	(obj:0)
_var2980_                          0.0269362536946495 	(obj:0)
_var2981_                            0.13307939933727 	(obj:0)
_var2984_                          0.0690558432252722 	(obj:0)
_var2985_                           0.190743614095756 	(obj:0)
_var2986_                          0.0208598401240526 	(obj:0)
_var2989_                          0.0921646098413489 	(obj:0)
_var2991_                           0.172250556936884 	(obj:0)
_var2992_                           0.105105699333097 	(obj:0)
_var2993_                          0.0776749408888881 	(obj:0)
_var2994_                          0.0988824447942458 	(obj:0)
_var2996_                          0.0730625049959168 	(obj:0)
_var2998_                           0.020804499607708 	(obj:0)
_var2999_                          0.0549207983376818 	(obj:0)
_var3000_                          0.0414020911452473 	(obj:0)
_var3002_                           0.145125350699174 	(obj:0)
_var3003_                          0.0838155923336412 	(obj:0)
_var3006_                           0.051466055246644 	(obj:0)
_var3008_                           0.253516751494416 	(obj:0)
_var3010_                         0.00948654884108371 	(obj:0)
_var3011_                         0.00532742591701563 	(obj:0)
_var3012_                           0.107186955564495 	(obj:0)
_var3014_                          0.0670322286797679 	(obj:0)
_var3016_                           0.137294905019378 	(obj:0)
_var3018_                          0.0897946082968878 	(obj:0)
_var3019_                            0.05232982226894 	(obj:0)
_var3020_                          0.0711871272126977 	(obj:0)
_var3021_                          0.0207452225127955 	(obj:0)
_var3022_                           0.104980600452416 	(obj:0)
_var3023_                          0.0442516442941515 	(obj:0)
_var3025_                           0.108636207993327 	(obj:0)
_var3026_                           0.144551632934865 	(obj:0)
_var3027_                          0.0573495103893388 	(obj:0)
_var3028_                           0.155963781854679 	(obj:0)
_var3034_                          0.0813597160111112 	(obj:0)
_var3037_                          0.0901135794186578 	(obj:0)
_var3039_                          0.0600949602578379 	(obj:0)
_var3040_                          0.0216317733383877 	(obj:0)
_var3046_                          0.0117803878973879 	(obj:0)
_var3049_                         0.00632308933181841 	(obj:0)
_var3055_                         0.00406582353178896 	(obj:0)
