results_rootrelaxation/bin018_050_018.srr.log
SCIP version 8.0.3.5 [precision: 8 byte] [memory: block] [mode: optimized] [LP solver: Soplex 6.0.1.3] [GitHash: 438792519e]
Copyright (c) 2002-2023 Zuse Institute Berlin (ZIB)

External libraries: 
  Readline 8.1         GNU library for command line editing (gnu.org/s/readline)
  Soplex 6.0.1.3       Linear Programming Solver developed at Zuse Institute Berlin (soplex.zib.de) [GitHash: 713be0fe]
  CppAD 20180000.0     Algorithmic Differentiation of C++ algorithms developed by B. Bell (github.com/coin-or/CppAD)
  ZLIB 1.2.11          General purpose compression library by J. Gailly and M. Adler (zlib.net)
  bliss 0.77           Computing Graph Automorphism Groups by T. Junttila and P. Kaski (www.tcs.hut.fi/Software/bliss/)

user parameter file <scip.set> not found - using default parameters

srr/relaxation = TRUE

read problem <instances/bin018_050_018.srr>
============

Original problem: 
original problem has 0 variables (0 bin, 0 int, 0 impl, 0 cont) and 170 constraints

presolving:
presolving (1 rounds: 1 fast, 1 medium, 1 exhaustive):
 0 deleted vars, 0 deleted constraints, 0 added constraints, 0 tightened bounds, 0 added holes, 0 changed sides, 0 changed coefficients
 0 implications, 0 cliques
presolved problem has 0 variables (0 bin, 0 int, 0 impl, 0 cont) and 170 constraints
    170 constraints of type <linear>
Presolving Time: 0.00

 time | node  | left  |LP iter|LP it/n|mem/heur|mdpt |vars |cons |rows |cuts |sepa|confs|strbr|  dualbound   | primalbound  |  gap   | compl. 
  0.0s|     1 |     0 |     1 |     - |   922k |   0 |   1 | 170 | 170 |   0 |  0 |   0 |   0 |      --      |      --      |    Inf | unknown
  0.2s|     1 |     0 |  1525 |     - |  7315k |   0 |1615 | 170 | 170 |   0 |  0 |   0 |   0 |      --      |      --      |    Inf | unknown
r 0.8s|     1 |     0 |  5741 |     - |simplero|   0 |2720 | 170 | 170 |   0 |  0 |   0 |   0 |      --      | 3.280309e+01 |    Inf | unknown
r 0.8s|     1 |     0 |  5798 |     - |simplero|   0 |2737 | 170 | 170 |   0 |  0 |   0 |   0 |      --      | 3.180431e+01 |    Inf | unknown
r 0.8s|     1 |     0 |  5886 |     - |simplero|   0 |2754 | 170 | 170 |   0 |  0 |   0 |   0 |      --      | 3.006581e+01 |    Inf | unknown
r 0.8s|     1 |     0 |  6056 |     - |simplero|   0 |2771 | 170 | 170 |   0 |  0 |   0 |   0 |      --      | 2.747332e+01 |    Inf | unknown
r 0.9s|     1 |     0 |  6271 |     - |simplero|   0 |2788 | 170 | 170 |   0 |  0 |   0 |   0 |      --      | 2.373024e+01 |    Inf | unknown
r 0.9s|     1 |     0 |  6365 |     - |simplero|   0 |2805 | 170 | 170 |   0 |  0 |   0 |   0 |      --      | 2.220966e+01 |    Inf | unknown
r 0.9s|     1 |     0 |  6404 |     - |simplero|   0 |2805 | 170 | 170 |   0 |  0 |   0 |   0 |      --      | 2.208811e+01 |    Inf | unknown
r 0.9s|     1 |     0 |  6433 |     - |simplero|   0 |2805 | 170 | 170 |   0 |  0 |   0 |   0 |      --      | 2.205342e+01 |    Inf | unknown
r 0.9s|     1 |     0 |  6440 |     - |simplero|   0 |2805 | 170 | 170 |   0 |  0 |   0 |   0 |      --      | 2.205184e+01 |    Inf | unknown
r 0.9s|     1 |     0 |  6595 |     - |simplero|   0 |2822 | 170 | 170 |   0 |  0 |   0 |   0 |      --      | 1.949418e+01 |    Inf | unknown
r 0.9s|     1 |     0 |  6653 |     - |simplero|   0 |2822 | 170 | 170 |   0 |  0 |   0 |   0 |      --      | 1.907519e+01 |    Inf | unknown
r 0.9s|     1 |     0 |  6660 |     - |simplero|   0 |2822 | 170 | 170 |   0 |  0 |   0 |   0 |      --      | 1.907163e+01 |    Inf | unknown
r 0.9s|     1 |     0 |  6665 |     - |simplero|   0 |2822 | 170 | 170 |   0 |  0 |   0 |   0 |      --      | 1.907111e+01 |    Inf | unknown
 time | node  | left  |LP iter|LP it/n|mem/heur|mdpt |vars |cons |rows |cuts |sepa|confs|strbr|  dualbound   | primalbound  |  gap   | compl. 
r 1.0s|     1 |     0 |  6766 |     - |simplero|   0 |2839 | 170 | 170 |   0 |  0 |   0 |   0 |      --      | 1.778361e+01 |    Inf | unknown
r 1.0s|     1 |     0 |  6822 |     - |simplero|   0 |2839 | 170 | 170 |   0 |  0 |   0 |   0 |      --      | 1.758457e+01 |    Inf | unknown
r 1.0s|     1 |     0 |  6838 |     - |simplero|   0 |2839 | 170 | 170 |   0 |  0 |   0 |   0 |      --      | 1.754131e+01 |    Inf | unknown
r 1.0s|     1 |     0 |  6840 |     - |simplero|   0 |2839 | 170 | 170 |   0 |  0 |   0 |   0 |      --      | 1.754107e+01 |    Inf | unknown
r 1.0s|     1 |     0 |  6922 |     - |simplero|   0 |2856 | 170 | 170 |   0 |  0 |   0 |   0 |      --      | 1.666421e+01 |    Inf | unknown
r 1.0s|     1 |     0 |  7027 |     - |simplero|   0 |2856 | 170 | 170 |   0 |  0 |   0 |   0 |      --      | 1.559275e+01 |    Inf | unknown
r 1.0s|     1 |     0 |  7057 |     - |simplero|   0 |2856 | 170 | 170 |   0 |  0 |   0 |   0 |      --      | 1.551650e+01 |    Inf | unknown
r 1.0s|     1 |     0 |  7063 |     - |simplero|   0 |2856 | 170 | 170 |   0 |  0 |   0 |   0 |      --      | 1.551523e+01 |    Inf | unknown
r 1.0s|     1 |     0 |  7066 |     - |simplero|   0 |2856 | 170 | 170 |   0 |  0 |   0 |   0 |      --      | 1.551431e+01 |    Inf | unknown
r 1.0s|     1 |     0 |  7218 |     - |simplero|   0 |2873 | 170 | 170 |   0 |  0 |   0 |   0 |      --      | 1.318933e+01 |    Inf | unknown
r 1.0s|     1 |     0 |  7286 |     - |simplero|   0 |2873 | 170 | 170 |   0 |  0 |   0 |   0 |      --      | 1.289204e+01 |    Inf | unknown
r 1.1s|     1 |     0 |  7297 |     - |simplero|   0 |2873 | 170 | 170 |   0 |  0 |   0 |   0 |      --      | 1.287597e+01 |    Inf | unknown
r 1.1s|     1 |     0 |  7303 |     - |simplero|   0 |2873 | 170 | 170 |   0 |  0 |   0 |   0 |      --      | 1.287570e+01 |    Inf | unknown
r 1.1s|     1 |     0 |  7470 |     - |simplero|   0 |2890 | 170 | 170 |   0 |  0 |   0 |   0 |      --      | 1.136305e+01 |    Inf | unknown
r 1.1s|     1 |     0 |  7525 |     - |simplero|   0 |2890 | 170 | 170 |   0 |  0 |   0 |   0 |      --      | 1.128269e+01 |    Inf | unknown
 time | node  | left  |LP iter|LP it/n|mem/heur|mdpt |vars |cons |rows |cuts |sepa|confs|strbr|  dualbound   | primalbound  |  gap   | compl. 
r 1.1s|     1 |     0 |  7528 |     - |simplero|   0 |2890 | 170 | 170 |   0 |  0 |   0 |   0 |      --      | 1.128223e+01 |    Inf | unknown
r 1.1s|     1 |     0 |  7529 |     - |simplero|   0 |2890 | 170 | 170 |   0 |  0 |   0 |   0 |      --      | 1.128219e+01 |    Inf | unknown
r 1.1s|     1 |     0 |  7530 |     - |simplero|   0 |2890 | 170 | 170 |   0 |  0 |   0 |   0 |      --      | 1.128219e+01 |    Inf | unknown
r 1.1s|     1 |     0 |  7650 |     - |simplero|   0 |2907 | 170 | 170 |   0 |  0 |   0 |   0 |      --      | 1.031133e+01 |    Inf | unknown
r 1.1s|     1 |     0 |  7712 |     - |simplero|   0 |2907 | 170 | 170 |   0 |  0 |   0 |   0 |      --      | 1.011132e+01 |    Inf | unknown
  1.1s|     1 |     0 |  7737 |     - |    14M |   0 |2907 | 170 | 170 |   0 |  0 |   0 |   0 |      --      | 1.011132e+01 |    Inf | unknown
r 1.1s|     1 |     0 |  7737 |     - |simplero|   0 |2907 | 170 | 170 |   0 |  0 |   0 |   0 |      --      | 1.009649e+01 |    Inf | unknown
r 1.1s|     1 |     0 |  7900 |     - |simplero|   0 |2924 | 170 | 170 |   0 |  0 |   0 |   0 |      --      | 8.840746e+00 |    Inf | unknown
r 1.1s|     1 |     0 |  7948 |     - |simplero|   0 |2924 | 170 | 170 |   0 |  0 |   0 |   0 |      --      | 8.642657e+00 |    Inf | unknown
r 1.2s|     1 |     0 |  7978 |     - |simplero|   0 |2924 | 170 | 170 |   0 |  0 |   0 |   0 |      --      | 8.581536e+00 |    Inf | unknown
r 1.2s|     1 |     0 |  7980 |     - |simplero|   0 |2924 | 170 | 170 |   0 |  0 |   0 |   0 |      --      | 8.580924e+00 |    Inf | unknown
r 1.2s|     1 |     0 |  8127 |     - |simplero|   0 |2941 | 170 | 170 |   0 |  0 |   0 |   0 |      --      | 7.161086e+00 |    Inf | unknown
r 1.2s|     1 |     0 |  8189 |     - |simplero|   0 |2941 | 170 | 170 |   0 |  0 |   0 |   0 |      --      | 6.892622e+00 |    Inf | unknown
r 1.2s|     1 |     0 |  8197 |     - |simplero|   0 |2941 | 170 | 170 |   0 |  0 |   0 |   0 |      --      | 6.890480e+00 |    Inf | unknown
r 1.2s|     1 |     0 |  8326 |     - |simplero|   0 |2958 | 170 | 170 |   0 |  0 |   0 |   0 |      --      | 5.335138e+00 |    Inf | unknown
 time | node  | left  |LP iter|LP it/n|mem/heur|mdpt |vars |cons |rows |cuts |sepa|confs|strbr|  dualbound   | primalbound  |  gap   | compl. 
r 1.2s|     1 |     0 |  8361 |     - |simplero|   0 |2958 | 170 | 170 |   0 |  0 |   0 |   0 |      --      | 5.202105e+00 |    Inf | unknown
r 1.2s|     1 |     0 |  8365 |     - |simplero|   0 |2958 | 170 | 170 |   0 |  0 |   0 |   0 |      --      | 5.197742e+00 |    Inf | unknown
r 1.2s|     1 |     0 |  8466 |     - |simplero|   0 |2975 | 170 | 170 |   0 |  0 |   0 |   0 |      --      | 4.295279e+00 |    Inf | unknown
r 1.2s|     1 |     0 |  8529 |     - |simplero|   0 |2975 | 170 | 170 |   0 |  0 |   0 |   0 |      --      | 4.042299e+00 |    Inf | unknown
r 1.2s|     1 |     0 |  8533 |     - |simplero|   0 |2975 | 170 | 170 |   0 |  0 |   0 |   0 |      --      | 4.041692e+00 |    Inf | unknown
r 1.3s|     1 |     0 |  8621 |     - |simplero|   0 |2992 | 170 | 170 |   0 |  0 |   0 |   0 |      --      | 3.245092e+00 |    Inf | unknown
r 1.3s|     1 |     0 |  8688 |     - |simplero|   0 |2992 | 170 | 170 |   0 |  0 |   0 |   0 |      --      | 2.921550e+00 |    Inf | unknown
r 1.3s|     1 |     0 |  8720 |     - |simplero|   0 |2992 | 170 | 170 |   0 |  0 |   0 |   0 |      --      | 2.814083e+00 |    Inf | unknown
r 1.3s|     1 |     0 |  8826 |     - |simplero|   0 |3009 | 170 | 170 |   0 |  0 |   0 |   0 |      --      | 1.930944e+00 |    Inf | unknown
r 1.3s|     1 |     0 |  8839 |     - |simplero|   0 |3009 | 170 | 170 |   0 |  0 |   0 |   0 |      --      | 1.905508e+00 |    Inf | unknown
r 1.3s|     1 |     0 |  8842 |     - |simplero|   0 |3009 | 170 | 170 |   0 |  0 |   0 |   0 |      --      | 1.905123e+00 |    Inf | unknown
r 1.3s|     1 |     0 |  8917 |     - |simplero|   0 |3026 | 170 | 170 |   0 |  0 |   0 |   0 |      --      | 1.113376e+00 |    Inf | unknown
r 1.3s|     1 |     0 |  8965 |     - |simplero|   0 |3026 | 170 | 170 |   0 |  0 |   0 |   0 |      --      | 9.112789e-01 |    Inf | unknown
r 1.3s|     1 |     0 |  8994 |     - |simplero|   0 |3026 | 170 | 170 |   0 |  0 |   0 |   0 |      --      | 7.862778e-01 |    Inf | unknown
r 1.3s|     1 |     0 |  9072 |     - |simplero|   0 |3043 | 170 | 170 |   0 |  0 |   0 |   0 |      --      | 7.552176e-02 |    Inf | unknown
 time | node  | left  |LP iter|LP it/n|mem/heur|mdpt |vars |cons |rows |cuts |sepa|confs|strbr|  dualbound   | primalbound  |  gap   | compl. 
r 1.3s|     1 |     0 |  9090 |     - |simplero|   0 |3043 | 170 | 170 |   0 |  0 |   0 |   0 |      --      | 4.412367e-02 |    Inf | unknown
r 1.3s|     1 |     0 |  9097 |     - |simplero|   0 |3043 | 170 | 170 |   0 |  0 |   0 |   0 |      --      | 3.839886e-02 |    Inf | unknown
r 1.4s|     1 |     0 |  9102 |     - |simplero|   0 |3060 | 170 | 170 |   0 |  0 |   0 |   0 |      --      | 0.000000e+00 |    Inf | unknown
  1.4s|     1 |     0 |  9102 |     - |    16M |   0 |3060 | 170 | 170 |   0 |  0 |   0 |   0 | 0.000000e+00 | 0.000000e+00 |   0.00%| unknown
  1.4s|     1 |     0 |  9102 |     - |    16M |   0 |3060 | 170 | 170 |   0 |  0 |   0 |   0 | 0.000000e+00 | 0.000000e+00 |   0.00%| unknown

SCIP Status        : problem is solved [optimal solution found]
Solving Time (sec) : 1.36
Solving Nodes      : 1
Primal Bound       : +0.00000000000000e+00 (60 solutions)
Dual Bound         : +0.00000000000000e+00
Gap                : 0.00 %

written transformed problem to file <results_rootrelaxation/bin018_050_018.srr.lp>
written transformed problem to file <results_rootrelaxation/bin018_050_018.srr.cip>

written solution information to file <results_rootrelaxation/bin018_050_018.srr.sol>



